data;
param nombreJob := 6;
param nombreRessource := 3;
param duree := 1 10 2 7 3 7 4 2 5 4 6 9;
param capaciteRessource := 1 5 2 12 3 12;
param besoinRessource : 1 2 3 :=
                    1   4 6 2
                    2   2 5 9
                    3   4 3 3
                    4   2 4 5
                    5   3 4 4
                    6   4 5 2;
end;

